t test test test
fvAutomatic mesh 
0
Gamma
20 20  1
0.  0.  0.
vvvvvvvvv
